3,1,7,1,4,1,8,1,11,1,2,1,12,1,9,1,10,1,6,1,13,1,1,1,5,1;7,2,3,2,4,2,8,2,11,2,2,2,12,2,9,2,10,2,13,2,1,2,6,2,5,2;7,3,3,3,4,3,8,3,11,3,2,3,12,3,9,3,10,3,13,3,1,3,6,3,5,3;7,4,3,4,4,4,8,4,11,4,2,4,12,4,9,4,10,4,13,4,1,4,6,4,5,4;
